Problem:    GasStation
Rows:       6
Columns:    4
Non-zeros:  10
Status:     OPTIMAL
Objective:  obj = 175 (MINimum)

   No.   Row name   St   Activity     Lower bound   Upper bound    Marginal
------ ------------ -- ------------- ------------- ------------- -------------
     1 obj          B            175                             
     2 c1           NU           550             0           550          -0.5 
     3 c2           B            725           350          1100 
     4 c3           NL           900           900          1600           0.5 
     5 c4           NU             0                          -0          -0.5 
     6 c5           NU             0                          -0          -0.5 

   No. Column name  St   Activity     Lower bound   Upper bound    Marginal
------ ------------ -- ------------- ------------- ------------- -------------
     1 s1           B            550             0               
     2 s2           B            725             0               
     3 s3           B            900             0               
     4 D            B            175                             

Karush-Kuhn-Tucker optimality conditions:

KKT.PE: max.abs.err = 0.00e+000 on row 0
        max.rel.err = 0.00e+000 on row 0
        High quality

KKT.PB: max.abs.err = 0.00e+000 on row 0
        max.rel.err = 0.00e+000 on row 0
        High quality

KKT.DE: max.abs.err = 0.00e+000 on column 0
        max.rel.err = 0.00e+000 on column 0
        High quality

KKT.DB: max.abs.err = 0.00e+000 on row 0
        max.rel.err = 0.00e+000 on row 0
        High quality

End of output
